GLPSOL: GLPK LP/MIP Solver, v4.57
Parameter(s) specified in the command line:
 -m shortest_paths_without_parity.mod -d data/data_4_58.dat -o outputs/output_4_58.txt
Reading model section from shortest_paths_without_parity.mod...
36 lines were read
Reading data section from data/data_4_58.dat...
data/data_4_58.dat:110: warning: final NL missing before end of file
110 lines were read
Generating obj...
Generating cons1O1...
Generating cons1O2...
Generating cons1NotOD...
